[[29,38,156,200,276,310,399,550,795,802,857,926,941,994,999],[2,47,73,229,250,273,375,394,457,480,566,730,764,835,848,958,991],[1,24,39,55,65,68,82,153,201,214,215,225,317,348,363,366,473],[70,137,166,198,371,398,409,459,466,532,572,586,594,671,828,851,964],[64,75,89,113,192,253,272,296,684,704,709,735,753,756,786,832,959],[161,174,324,338,342,344,346,376,424,579,607,632,633,670,691,711,920]]